199 69 136 147 48 163 135 68 108 174 71 157 90 9 152 25 173 189 185 95 119 125 153 45 75 47 53 167 146 132 30 57 121 85 73 113 179 183 198 139 4 55 161 149 187 22 33 106 186 123 12 49 32 172 188 83 128 93 34 92 192 62 116 162 112 94 143 15 24 87 52 141 169 122 78 190 196 80 166 72 56 104 1 50 14 145 109 114 140 70 61 27 17 129 89 54 79 76 39 137 111 8 150 26 181 197 107 16 184 160 96 134 178 63 118 67 84 168 44 171 43 110 156 21 38 151 155 144 120 195 88 105 100 165 117 131 176 18 124 13 102 0 36 133 101 20 58 103 164 154 182 194 126 6 42 64 40 19 59 7 3 170 29 180 91 51 65 82 115 193 97 98 5 191 10 35 74 46 130 127 60 99 41 23 159 37 11 81 28 77 177 86 138 148 31 142 175 2 158 66 

